(set-logic QF_LRA)
(declare-fun X0 () Real )
(declare-fun Y0 () Real )
(declare-fun X1 () Real )
(declare-fun Y1 () Real )
(declare-fun X2 () Real )
(declare-fun Y2 () Real )
(declare-fun X3 () Real )
(declare-fun Y3 () Real )
(declare-fun X4 () Real )
(declare-fun Y4 () Real )
(declare-fun X5 () Real )
(declare-fun Y5 () Real )
(declare-fun X6 () Real )
(declare-fun Y6 () Real )
(declare-fun X7 () Real )
(declare-fun Y7 () Real )
(declare-fun X8 () Real )
(declare-fun Y8 () Real )
(declare-fun X9 () Real )
(declare-fun Y9 () Real )
(declare-fun X10 () Real )
(declare-fun Y10 () Real )
(declare-fun X11 () Real )
(declare-fun Y11 () Real )
(declare-fun X12 () Real )
(declare-fun Y12 () Real )
(declare-fun X13 () Real )
(declare-fun Y13 () Real )
(declare-fun X14 () Real )
(declare-fun Y14 () Real )
(declare-fun Z () Real )
(assert ( and  
( or ( <= ( + X0 92 ) X1 )  ( <= ( + X1 94 ) X0 )  ( <= ( + Y0 69 ) Y1 )  ( <= ( + Y1 10 ) Y0 )  )
( or ( <= ( + X0 92 ) X2 )  ( <= ( + X2 30 ) X0 )  ( <= ( + Y0 69 ) Y2 )  ( <= ( + Y2 10 ) Y0 )  )
( or ( <= ( + X0 92 ) X3 )  ( <= ( + X3 50 ) X0 )  ( <= ( + Y0 69 ) Y3 )  ( <= ( + Y3 50 ) Y0 )  )
( or ( <= ( + X0 92 ) X4 )  ( <= ( + X4 65 ) X0 )  ( <= ( + Y0 69 ) Y4 )  ( <= ( + Y4 33 ) Y0 )  )
( or ( <= ( + X0 92 ) X5 )  ( <= ( + X5 56 ) X0 )  ( <= ( + Y0 69 ) Y5 )  ( <= ( + Y5 20 ) Y0 )  )
( or ( <= ( + X0 92 ) X6 )  ( <= ( + X6 73 ) X0 )  ( <= ( + Y0 69 ) Y6 )  ( <= ( + Y6 68 ) Y0 )  )
( or ( <= ( + X0 92 ) X7 )  ( <= ( + X7 27 ) X0 )  ( <= ( + Y0 69 ) Y7 )  ( <= ( + Y7 7 ) Y0 )  )
( or ( <= ( + X0 92 ) X8 )  ( <= ( + X8 62 ) X0 )  ( <= ( + Y0 69 ) Y8 )  ( <= ( + Y8 76 ) Y0 )  )
( or ( <= ( + X0 92 ) X9 )  ( <= ( + X9 56 ) X0 )  ( <= ( + Y0 69 ) Y9 )  ( <= ( + Y9 46 ) Y0 )  )
( or ( <= ( + X0 92 ) X10 )  ( <= ( + X10 54 ) X0 )  ( <= ( + Y0 69 ) Y10 )  ( <= ( + Y10 92 ) Y0 )  )
( or ( <= ( + X0 92 ) X11 )  ( <= ( + X11 34 ) X0 )  ( <= ( + Y0 69 ) Y11 )  ( <= ( + Y11 20 ) Y0 )  )
( or ( <= ( + X0 92 ) X12 )  ( <= ( + X12 30 ) X0 )  ( <= ( + Y0 69 ) Y12 )  ( <= ( + Y12 73 ) Y0 )  )
( or ( <= ( + X0 92 ) X13 )  ( <= ( + X13 68 ) X0 )  ( <= ( + Y0 69 ) Y13 )  ( <= ( + Y13 78 ) Y0 )  )
( or ( <= ( + X0 92 ) X14 )  ( <= ( + X14 88 ) X0 )  ( <= ( + Y0 69 ) Y14 )  ( <= ( + Y14 54 ) Y0 )  )
( or ( <= ( + X1 94 ) X2 )  ( <= ( + X2 30 ) X1 )  ( <= ( + Y1 10 ) Y2 )  ( <= ( + Y2 10 ) Y1 )  )
( or ( <= ( + X1 94 ) X3 )  ( <= ( + X3 50 ) X1 )  ( <= ( + Y1 10 ) Y3 )  ( <= ( + Y3 50 ) Y1 )  )
( or ( <= ( + X1 94 ) X4 )  ( <= ( + X4 65 ) X1 )  ( <= ( + Y1 10 ) Y4 )  ( <= ( + Y4 33 ) Y1 )  )
( or ( <= ( + X1 94 ) X5 )  ( <= ( + X5 56 ) X1 )  ( <= ( + Y1 10 ) Y5 )  ( <= ( + Y5 20 ) Y1 )  )
( or ( <= ( + X1 94 ) X6 )  ( <= ( + X6 73 ) X1 )  ( <= ( + Y1 10 ) Y6 )  ( <= ( + Y6 68 ) Y1 )  )
( or ( <= ( + X1 94 ) X7 )  ( <= ( + X7 27 ) X1 )  ( <= ( + Y1 10 ) Y7 )  ( <= ( + Y7 7 ) Y1 )  )
( or ( <= ( + X1 94 ) X8 )  ( <= ( + X8 62 ) X1 )  ( <= ( + Y1 10 ) Y8 )  ( <= ( + Y8 76 ) Y1 )  )
( or ( <= ( + X1 94 ) X9 )  ( <= ( + X9 56 ) X1 )  ( <= ( + Y1 10 ) Y9 )  ( <= ( + Y9 46 ) Y1 )  )
( or ( <= ( + X1 94 ) X10 )  ( <= ( + X10 54 ) X1 )  ( <= ( + Y1 10 ) Y10 )  ( <= ( + Y10 92 ) Y1 )  )
( or ( <= ( + X1 94 ) X11 )  ( <= ( + X11 34 ) X1 )  ( <= ( + Y1 10 ) Y11 )  ( <= ( + Y11 20 ) Y1 )  )
( or ( <= ( + X1 94 ) X12 )  ( <= ( + X12 30 ) X1 )  ( <= ( + Y1 10 ) Y12 )  ( <= ( + Y12 73 ) Y1 )  )
( or ( <= ( + X1 94 ) X13 )  ( <= ( + X13 68 ) X1 )  ( <= ( + Y1 10 ) Y13 )  ( <= ( + Y13 78 ) Y1 )  )
( or ( <= ( + X1 94 ) X14 )  ( <= ( + X14 88 ) X1 )  ( <= ( + Y1 10 ) Y14 )  ( <= ( + Y14 54 ) Y1 )  )
( or ( <= ( + X2 30 ) X3 )  ( <= ( + X3 50 ) X2 )  ( <= ( + Y2 10 ) Y3 )  ( <= ( + Y3 50 ) Y2 )  )
( or ( <= ( + X2 30 ) X4 )  ( <= ( + X4 65 ) X2 )  ( <= ( + Y2 10 ) Y4 )  ( <= ( + Y4 33 ) Y2 )  )
( or ( <= ( + X2 30 ) X5 )  ( <= ( + X5 56 ) X2 )  ( <= ( + Y2 10 ) Y5 )  ( <= ( + Y5 20 ) Y2 )  )
( or ( <= ( + X2 30 ) X6 )  ( <= ( + X6 73 ) X2 )  ( <= ( + Y2 10 ) Y6 )  ( <= ( + Y6 68 ) Y2 )  )
( or ( <= ( + X2 30 ) X7 )  ( <= ( + X7 27 ) X2 )  ( <= ( + Y2 10 ) Y7 )  ( <= ( + Y7 7 ) Y2 )  )
( or ( <= ( + X2 30 ) X8 )  ( <= ( + X8 62 ) X2 )  ( <= ( + Y2 10 ) Y8 )  ( <= ( + Y8 76 ) Y2 )  )
( or ( <= ( + X2 30 ) X9 )  ( <= ( + X9 56 ) X2 )  ( <= ( + Y2 10 ) Y9 )  ( <= ( + Y9 46 ) Y2 )  )
( or ( <= ( + X2 30 ) X10 )  ( <= ( + X10 54 ) X2 )  ( <= ( + Y2 10 ) Y10 )  ( <= ( + Y10 92 ) Y2 )  )
( or ( <= ( + X2 30 ) X11 )  ( <= ( + X11 34 ) X2 )  ( <= ( + Y2 10 ) Y11 )  ( <= ( + Y11 20 ) Y2 )  )
( or ( <= ( + X2 30 ) X12 )  ( <= ( + X12 30 ) X2 )  ( <= ( + Y2 10 ) Y12 )  ( <= ( + Y12 73 ) Y2 )  )
( or ( <= ( + X2 30 ) X13 )  ( <= ( + X13 68 ) X2 )  ( <= ( + Y2 10 ) Y13 )  ( <= ( + Y13 78 ) Y2 )  )
( or ( <= ( + X2 30 ) X14 )  ( <= ( + X14 88 ) X2 )  ( <= ( + Y2 10 ) Y14 )  ( <= ( + Y14 54 ) Y2 )  )
( or ( <= ( + X3 50 ) X4 )  ( <= ( + X4 65 ) X3 )  ( <= ( + Y3 50 ) Y4 )  ( <= ( + Y4 33 ) Y3 )  )
( or ( <= ( + X3 50 ) X5 )  ( <= ( + X5 56 ) X3 )  ( <= ( + Y3 50 ) Y5 )  ( <= ( + Y5 20 ) Y3 )  )
( or ( <= ( + X3 50 ) X6 )  ( <= ( + X6 73 ) X3 )  ( <= ( + Y3 50 ) Y6 )  ( <= ( + Y6 68 ) Y3 )  )
( or ( <= ( + X3 50 ) X7 )  ( <= ( + X7 27 ) X3 )  ( <= ( + Y3 50 ) Y7 )  ( <= ( + Y7 7 ) Y3 )  )
( or ( <= ( + X3 50 ) X8 )  ( <= ( + X8 62 ) X3 )  ( <= ( + Y3 50 ) Y8 )  ( <= ( + Y8 76 ) Y3 )  )
( or ( <= ( + X3 50 ) X9 )  ( <= ( + X9 56 ) X3 )  ( <= ( + Y3 50 ) Y9 )  ( <= ( + Y9 46 ) Y3 )  )
( or ( <= ( + X3 50 ) X10 )  ( <= ( + X10 54 ) X3 )  ( <= ( + Y3 50 ) Y10 )  ( <= ( + Y10 92 ) Y3 )  )
( or ( <= ( + X3 50 ) X11 )  ( <= ( + X11 34 ) X3 )  ( <= ( + Y3 50 ) Y11 )  ( <= ( + Y11 20 ) Y3 )  )
( or ( <= ( + X3 50 ) X12 )  ( <= ( + X12 30 ) X3 )  ( <= ( + Y3 50 ) Y12 )  ( <= ( + Y12 73 ) Y3 )  )
( or ( <= ( + X3 50 ) X13 )  ( <= ( + X13 68 ) X3 )  ( <= ( + Y3 50 ) Y13 )  ( <= ( + Y13 78 ) Y3 )  )
( or ( <= ( + X3 50 ) X14 )  ( <= ( + X14 88 ) X3 )  ( <= ( + Y3 50 ) Y14 )  ( <= ( + Y14 54 ) Y3 )  )
( or ( <= ( + X4 65 ) X5 )  ( <= ( + X5 56 ) X4 )  ( <= ( + Y4 33 ) Y5 )  ( <= ( + Y5 20 ) Y4 )  )
( or ( <= ( + X4 65 ) X6 )  ( <= ( + X6 73 ) X4 )  ( <= ( + Y4 33 ) Y6 )  ( <= ( + Y6 68 ) Y4 )  )
( or ( <= ( + X4 65 ) X7 )  ( <= ( + X7 27 ) X4 )  ( <= ( + Y4 33 ) Y7 )  ( <= ( + Y7 7 ) Y4 )  )
( or ( <= ( + X4 65 ) X8 )  ( <= ( + X8 62 ) X4 )  ( <= ( + Y4 33 ) Y8 )  ( <= ( + Y8 76 ) Y4 )  )
( or ( <= ( + X4 65 ) X9 )  ( <= ( + X9 56 ) X4 )  ( <= ( + Y4 33 ) Y9 )  ( <= ( + Y9 46 ) Y4 )  )
( or ( <= ( + X4 65 ) X10 )  ( <= ( + X10 54 ) X4 )  ( <= ( + Y4 33 ) Y10 )  ( <= ( + Y10 92 ) Y4 )  )
( or ( <= ( + X4 65 ) X11 )  ( <= ( + X11 34 ) X4 )  ( <= ( + Y4 33 ) Y11 )  ( <= ( + Y11 20 ) Y4 )  )
( or ( <= ( + X4 65 ) X12 )  ( <= ( + X12 30 ) X4 )  ( <= ( + Y4 33 ) Y12 )  ( <= ( + Y12 73 ) Y4 )  )
( or ( <= ( + X4 65 ) X13 )  ( <= ( + X13 68 ) X4 )  ( <= ( + Y4 33 ) Y13 )  ( <= ( + Y13 78 ) Y4 )  )
( or ( <= ( + X4 65 ) X14 )  ( <= ( + X14 88 ) X4 )  ( <= ( + Y4 33 ) Y14 )  ( <= ( + Y14 54 ) Y4 )  )
( or ( <= ( + X5 56 ) X6 )  ( <= ( + X6 73 ) X5 )  ( <= ( + Y5 20 ) Y6 )  ( <= ( + Y6 68 ) Y5 )  )
( or ( <= ( + X5 56 ) X7 )  ( <= ( + X7 27 ) X5 )  ( <= ( + Y5 20 ) Y7 )  ( <= ( + Y7 7 ) Y5 )  )
( or ( <= ( + X5 56 ) X8 )  ( <= ( + X8 62 ) X5 )  ( <= ( + Y5 20 ) Y8 )  ( <= ( + Y8 76 ) Y5 )  )
( or ( <= ( + X5 56 ) X9 )  ( <= ( + X9 56 ) X5 )  ( <= ( + Y5 20 ) Y9 )  ( <= ( + Y9 46 ) Y5 )  )
( or ( <= ( + X5 56 ) X10 )  ( <= ( + X10 54 ) X5 )  ( <= ( + Y5 20 ) Y10 )  ( <= ( + Y10 92 ) Y5 )  )
( or ( <= ( + X5 56 ) X11 )  ( <= ( + X11 34 ) X5 )  ( <= ( + Y5 20 ) Y11 )  ( <= ( + Y11 20 ) Y5 )  )
( or ( <= ( + X5 56 ) X12 )  ( <= ( + X12 30 ) X5 )  ( <= ( + Y5 20 ) Y12 )  ( <= ( + Y12 73 ) Y5 )  )
( or ( <= ( + X5 56 ) X13 )  ( <= ( + X13 68 ) X5 )  ( <= ( + Y5 20 ) Y13 )  ( <= ( + Y13 78 ) Y5 )  )
( or ( <= ( + X5 56 ) X14 )  ( <= ( + X14 88 ) X5 )  ( <= ( + Y5 20 ) Y14 )  ( <= ( + Y14 54 ) Y5 )  )
( or ( <= ( + X6 73 ) X7 )  ( <= ( + X7 27 ) X6 )  ( <= ( + Y6 68 ) Y7 )  ( <= ( + Y7 7 ) Y6 )  )
( or ( <= ( + X6 73 ) X8 )  ( <= ( + X8 62 ) X6 )  ( <= ( + Y6 68 ) Y8 )  ( <= ( + Y8 76 ) Y6 )  )
( or ( <= ( + X6 73 ) X9 )  ( <= ( + X9 56 ) X6 )  ( <= ( + Y6 68 ) Y9 )  ( <= ( + Y9 46 ) Y6 )  )
( or ( <= ( + X6 73 ) X10 )  ( <= ( + X10 54 ) X6 )  ( <= ( + Y6 68 ) Y10 )  ( <= ( + Y10 92 ) Y6 )  )
( or ( <= ( + X6 73 ) X11 )  ( <= ( + X11 34 ) X6 )  ( <= ( + Y6 68 ) Y11 )  ( <= ( + Y11 20 ) Y6 )  )
( or ( <= ( + X6 73 ) X12 )  ( <= ( + X12 30 ) X6 )  ( <= ( + Y6 68 ) Y12 )  ( <= ( + Y12 73 ) Y6 )  )
( or ( <= ( + X6 73 ) X13 )  ( <= ( + X13 68 ) X6 )  ( <= ( + Y6 68 ) Y13 )  ( <= ( + Y13 78 ) Y6 )  )
( or ( <= ( + X6 73 ) X14 )  ( <= ( + X14 88 ) X6 )  ( <= ( + Y6 68 ) Y14 )  ( <= ( + Y14 54 ) Y6 )  )
( or ( <= ( + X7 27 ) X8 )  ( <= ( + X8 62 ) X7 )  ( <= ( + Y7 7 ) Y8 )  ( <= ( + Y8 76 ) Y7 )  )
( or ( <= ( + X7 27 ) X9 )  ( <= ( + X9 56 ) X7 )  ( <= ( + Y7 7 ) Y9 )  ( <= ( + Y9 46 ) Y7 )  )
( or ( <= ( + X7 27 ) X10 )  ( <= ( + X10 54 ) X7 )  ( <= ( + Y7 7 ) Y10 )  ( <= ( + Y10 92 ) Y7 )  )
( or ( <= ( + X7 27 ) X11 )  ( <= ( + X11 34 ) X7 )  ( <= ( + Y7 7 ) Y11 )  ( <= ( + Y11 20 ) Y7 )  )
( or ( <= ( + X7 27 ) X12 )  ( <= ( + X12 30 ) X7 )  ( <= ( + Y7 7 ) Y12 )  ( <= ( + Y12 73 ) Y7 )  )
( or ( <= ( + X7 27 ) X13 )  ( <= ( + X13 68 ) X7 )  ( <= ( + Y7 7 ) Y13 )  ( <= ( + Y13 78 ) Y7 )  )
( or ( <= ( + X7 27 ) X14 )  ( <= ( + X14 88 ) X7 )  ( <= ( + Y7 7 ) Y14 )  ( <= ( + Y14 54 ) Y7 )  )
( or ( <= ( + X8 62 ) X9 )  ( <= ( + X9 56 ) X8 )  ( <= ( + Y8 76 ) Y9 )  ( <= ( + Y9 46 ) Y8 )  )
( or ( <= ( + X8 62 ) X10 )  ( <= ( + X10 54 ) X8 )  ( <= ( + Y8 76 ) Y10 )  ( <= ( + Y10 92 ) Y8 )  )
( or ( <= ( + X8 62 ) X11 )  ( <= ( + X11 34 ) X8 )  ( <= ( + Y8 76 ) Y11 )  ( <= ( + Y11 20 ) Y8 )  )
( or ( <= ( + X8 62 ) X12 )  ( <= ( + X12 30 ) X8 )  ( <= ( + Y8 76 ) Y12 )  ( <= ( + Y12 73 ) Y8 )  )
( or ( <= ( + X8 62 ) X13 )  ( <= ( + X13 68 ) X8 )  ( <= ( + Y8 76 ) Y13 )  ( <= ( + Y13 78 ) Y8 )  )
( or ( <= ( + X8 62 ) X14 )  ( <= ( + X14 88 ) X8 )  ( <= ( + Y8 76 ) Y14 )  ( <= ( + Y14 54 ) Y8 )  )
( or ( <= ( + X9 56 ) X10 )  ( <= ( + X10 54 ) X9 )  ( <= ( + Y9 46 ) Y10 )  ( <= ( + Y10 92 ) Y9 )  )
( or ( <= ( + X9 56 ) X11 )  ( <= ( + X11 34 ) X9 )  ( <= ( + Y9 46 ) Y11 )  ( <= ( + Y11 20 ) Y9 )  )
( or ( <= ( + X9 56 ) X12 )  ( <= ( + X12 30 ) X9 )  ( <= ( + Y9 46 ) Y12 )  ( <= ( + Y12 73 ) Y9 )  )
( or ( <= ( + X9 56 ) X13 )  ( <= ( + X13 68 ) X9 )  ( <= ( + Y9 46 ) Y13 )  ( <= ( + Y13 78 ) Y9 )  )
( or ( <= ( + X9 56 ) X14 )  ( <= ( + X14 88 ) X9 )  ( <= ( + Y9 46 ) Y14 )  ( <= ( + Y14 54 ) Y9 )  )
( or ( <= ( + X10 54 ) X11 )  ( <= ( + X11 34 ) X10 )  ( <= ( + Y10 92 ) Y11 )  ( <= ( + Y11 20 ) Y10 )  )
( or ( <= ( + X10 54 ) X12 )  ( <= ( + X12 30 ) X10 )  ( <= ( + Y10 92 ) Y12 )  ( <= ( + Y12 73 ) Y10 )  )
( or ( <= ( + X10 54 ) X13 )  ( <= ( + X13 68 ) X10 )  ( <= ( + Y10 92 ) Y13 )  ( <= ( + Y13 78 ) Y10 )  )
( or ( <= ( + X10 54 ) X14 )  ( <= ( + X14 88 ) X10 )  ( <= ( + Y10 92 ) Y14 )  ( <= ( + Y14 54 ) Y10 )  )
( or ( <= ( + X11 34 ) X12 )  ( <= ( + X12 30 ) X11 )  ( <= ( + Y11 20 ) Y12 )  ( <= ( + Y12 73 ) Y11 )  )
( or ( <= ( + X11 34 ) X13 )  ( <= ( + X13 68 ) X11 )  ( <= ( + Y11 20 ) Y13 )  ( <= ( + Y13 78 ) Y11 )  )
( or ( <= ( + X11 34 ) X14 )  ( <= ( + X14 88 ) X11 )  ( <= ( + Y11 20 ) Y14 )  ( <= ( + Y14 54 ) Y11 )  )
( or ( <= ( + X12 30 ) X13 )  ( <= ( + X13 68 ) X12 )  ( <= ( + Y12 73 ) Y13 )  ( <= ( + Y13 78 ) Y12 )  )
( or ( <= ( + X12 30 ) X14 )  ( <= ( + X14 88 ) X12 )  ( <= ( + Y12 73 ) Y14 )  ( <= ( + Y14 54 ) Y12 )  )
( or ( <= ( + X13 68 ) X14 )  ( <= ( + X14 88 ) X13 )  ( <= ( + Y13 78 ) Y14 )  ( <= ( + Y14 54 ) Y13 )  )
( >= X0 0)
( <= ( + X0 92) Z)
( >= Y0 0)
( <= ( + Y0 69 ) 193)
( >= X1 0)
( <= ( + X1 94) Z)
( >= Y1 0)
( <= ( + Y1 10 ) 193)
( >= X2 0)
( <= ( + X2 30) Z)
( >= Y2 0)
( <= ( + Y2 10 ) 193)
( >= X3 0)
( <= ( + X3 50) Z)
( >= Y3 0)
( <= ( + Y3 50 ) 193)
( >= X4 0)
( <= ( + X4 65) Z)
( >= Y4 0)
( <= ( + Y4 33 ) 193)
( >= X5 0)
( <= ( + X5 56) Z)
( >= Y5 0)
( <= ( + Y5 20 ) 193)
( >= X6 0)
( <= ( + X6 73) Z)
( >= Y6 0)
( <= ( + Y6 68 ) 193)
( >= X7 0)
( <= ( + X7 27) Z)
( >= Y7 0)
( <= ( + Y7 7 ) 193)
( >= X8 0)
( <= ( + X8 62) Z)
( >= Y8 0)
( <= ( + Y8 76 ) 193)
( >= X9 0)
( <= ( + X9 56) Z)
( >= Y9 0)
( <= ( + Y9 46 ) 193)
( >= X10 0)
( <= ( + X10 54) Z)
( >= Y10 0)
( <= ( + Y10 92 ) 193)
( >= X11 0)
( <= ( + X11 34) Z)
( >= Y11 0)
( <= ( + Y11 20 ) 193)
( >= X12 0)
( <= ( + X12 30) Z)
( >= Y12 0)
( <= ( + Y12 73 ) 193)
( >= X13 0)
( <= ( + X13 68) Z)
( >= Y13 0)
( <= ( + Y13 78 ) 193)
( >= X14 0)
( <= ( + X14 88) Z)
( >= Y14 0)
( <= ( + Y14 54 ) 193)
) )
(minimize Z)
(check-sat)
